p cnf 206 432
1 -2 0
2 -1 0
3 4 0
5 4 0
-3 -5 -4 0
-6 4 -7 0
6 -4 -7 0
7 -4 -6 0
6 4 7 0
-7 0
1 8 0
9 8 0
-1 -9 -8 0
-5 8 -10 0
5 -8 -10 0
10 -8 -5 0
5 8 10 0
-10 0
11 12 0
13 12 0
-11 -13 -12 0
-14 12 -15 0
14 -12 -15 0
15 -12 -14 0
14 12 15 0
-15 0
16 17 0
18 17 0
-16 -18 -17 0
-13 17 -19 0
13 -17 -19 0
19 -17 -13 0
13 17 19 0
-19 0
11 20 0
16 20 0
21 20 0
-11 -16 -21 -20 0
-18 20 -22 0
18 -20 -22 0
22 -20 -18 0
18 20 22 0
-22 0
18 23 0
24 23 0
-18 -24 -23 0
-25 23 -26 0
25 -23 -26 0
26 -23 -25 0
25 23 26 0
-26 0
27 28 0
29 28 0
-27 -29 -28 0
-30 28 -31 0
30 -28 -31 0
31 -28 -30 0
30 28 31 0
-31 0
32 33 0
34 33 0
-32 -34 -33 0
-29 33 -35 0
29 -33 -35 0
35 -33 -29 0
29 33 35 0
-35 0
36 37 0
38 37 0
-36 -38 -37 0
-32 37 -39 0
32 -37 -39 0
39 -37 -32 0
32 37 39 0
-39 0
40 41 0
36 41 0
-36 -40 -41 0
-38 41 -42 0
38 -41 -42 0
42 -41 -38 0
38 41 42 0
-42 0
43 44 0
45 44 0
-43 -45 -44 0
-46 44 -47 0
46 -44 -47 0
47 -44 -46 0
46 44 47 0
-47 0
48 49 0
50 49 0
-48 -50 -49 0
-45 49 -51 0
45 -49 -51 0
51 -49 -45 0
45 49 51 0
-51 0
52 53 0
54 53 0
-52 -54 -53 0
-50 53 -55 0
50 -53 -55 0
55 -53 -50 0
50 53 55 0
-55 0
56 57 0
58 57 0
-56 -58 -57 0
-54 57 -59 0
54 -57 -59 0
59 -57 -54 0
54 57 59 0
-59 0
60 61 0
62 61 0
-60 -62 -61 0
-58 61 -63 0
58 -61 -63 0
63 -61 -58 0
58 61 63 0
-63 0
64 65 0
66 65 0
-64 -66 -65 0
-62 65 -67 0
62 -65 -67 0
67 -65 -62 0
62 65 67 0
-67 0
68 69 0
70 69 0
-68 -70 -69 0
-66 69 -71 0
66 -69 -71 0
71 -69 -66 0
66 69 71 0
-71 0
60 72 0
64 72 0
68 72 0
73 72 0
-74 0
-70 72 -75 0
70 -72 -75 0
75 -72 -70 0
70 72 75 0
-75 0
76 77 0
78 77 0
-76 -78 -77 0
-79 77 -80 0
79 -77 -80 0
80 -77 -79 0
79 77 80 0
-80 0
62 81 0
82 81 0
-62 -82 -81 0
-78 81 -83 0
78 -81 -83 0
83 -81 -78 0
78 81 83 0
-83 0
84 85 0
86 85 0
-84 -86 -85 0
-87 85 -88 0
87 -85 -88 0
88 -85 -87 0
87 85 88 0
-88 0
89 90 0
91 90 0
-89 -91 -90 0
-86 90 -92 0
86 -90 -92 0
92 -90 -86 0
86 90 92 0
-92 0
93 94 0
95 94 0
-93 -95 -94 0
-91 94 -96 0
91 -94 -96 0
96 -94 -91 0
91 94 96 0
-96 0
97 98 0
99 98 0
-97 -99 -98 0
-95 98 -100 0
95 -98 -100 0
100 -98 -95 0
95 98 100 0
-100 0
101 102 0
103 102 0
-101 -103 -102 0
-99 102 -104 0
99 -102 -104 0
104 -102 -99 0
99 102 104 0
-104 0
105 106 0
107 106 0
-105 -107 -106 0
-103 106 -108 0
103 -106 -108 0
108 -106 -103 0
103 106 108 0
-108 0
97 109 0
101 109 0
105 109 0
110 109 0
-111 0
-107 109 -112 0
107 -109 -112 0
112 -109 -107 0
107 109 112 0
-112 0
113 114 0
115 114 0
-113 -115 -114 0
-116 114 -117 0
116 -114 -117 0
117 -114 -116 0
116 114 117 0
-117 0
113 -118 0
118 -113 0
79 119 0
120 119 0
-79 -120 -119 0
-121 119 -122 0
121 -119 -122 0
122 -119 -121 0
121 119 122 0
-122 0
123 124 0
125 124 0
-123 -125 -124 0
-126 124 -127 0
126 -124 -127 0
127 -124 -126 0
126 124 127 0
-127 0
116 128 0
129 128 0
-116 -129 -128 0
-125 128 -130 0
125 -128 -130 0
130 -128 -125 0
125 128 130 0
-130 0
131 132 0
133 132 0
-131 -133 -132 0
-134 132 -135 0
134 -132 -135 0
135 -132 -134 0
134 132 135 0
-135 0
99 136 0
137 136 0
-99 -137 -136 0
-133 136 -138 0
133 -136 -138 0
138 -136 -133 0
133 136 138 0
-138 0
30 139 0
140 139 0
-30 -140 -139 0
-141 139 -142 0
141 -139 -142 0
142 -139 -141 0
141 139 142 0
-142 0
66 143 0
144 143 0
-66 -144 -143 0
-145 143 -146 0
145 -143 -146 0
146 -143 -145 0
145 143 146 0
-146 0
147 148 0
149 148 0
-147 -149 -148 0
-150 148 -151 0
150 -148 -151 0
151 -148 -150 0
150 148 151 0
-151 0
78 152 0
153 152 0
-78 -153 -152 0
-149 152 -154 0
149 -152 -154 0
154 -152 -149 0
149 152 154 0
-154 0
155 156 0
157 156 0
-155 -157 -156 0
-158 156 -159 0
158 -156 -159 0
159 -156 -158 0
158 156 159 0
-159 0
160 161 0
162 161 0
-160 -162 -161 0
-155 161 -163 0
155 -161 -163 0
163 -161 -155 0
155 161 163 0
-163 0
25 164 0
165 164 0
-25 -165 -164 0
-162 164 -166 0
162 -164 -166 0
166 -164 -162 0
162 164 166 0
-166 0
29 167 0
168 167 0
-29 -168 -167 0
-169 167 -170 0
169 -167 -170 0
170 -167 -169 0
169 167 170 0
-170 0
171 172 0
173 172 0
-171 -173 -172 0
-174 172 -175 0
174 -172 -175 0
175 -172 -174 0
174 172 175 0
-175 0
176 177 0
178 177 0
-176 -178 -177 0
-173 177 -179 0
173 -177 -179 0
179 -177 -173 0
173 177 179 0
-179 0
180 181 0
182 181 0
-180 -182 -181 0
-178 181 -183 0
178 -181 -183 0
183 -181 -178 0
178 181 183 0
-183 0
184 185 0
186 185 0
-184 -186 -185 0
-182 185 -187 0
182 -185 -187 0
187 -185 -182 0
182 185 187 0
-187 0
188 189 0
190 189 0
-188 -190 -189 0
-186 189 -191 0
186 -189 -191 0
191 -189 -186 0
186 189 191 0
-191 0
192 193 0
194 193 0
-192 -194 -193 0
-190 193 -195 0
190 -193 -195 0
195 -193 -190 0
190 193 195 0
-195 0
188 196 0
192 196 0
197 196 0
-188 -192 -197 -196 0
-194 196 -198 0
194 -196 -198 0
198 -196 -194 0
194 196 198 0
-198 0
199 200 0
201 200 0
-199 -201 -200 0
-202 200 -203 0
202 -200 -203 0
203 -200 -202 0
202 200 203 0
-203 0
190 204 0
205 204 0
-190 -205 -204 0
-201 204 -206 0
201 -204 -206 0
206 -204 -201 0
201 204 206 0
-206 0
1 0
-6 0
-14 0
-25 0
-30 0
-32 0
-46 0
-79 0
-87 0
-116 0
-113 0
-121 0
-126 0
-134 0
-141 0
-145 0
-150 0
-158 0
-155 0
-169 0
-174 0
-202 0
